N = 13;
H = 5;
T = 2;

avail = array3d(1..N, 1..H, 1..T, [1, 8, 7, 6, 10, 1, 4, 9, 6, 6, 2, 7, 9, 7, 9, 0, 9, 10, 1, 6, 8, 4, 0, 9, 10, 9, 3, 5, 8, 5, 2, 8, 8, 1, 6, 6, 1, 6, 2, 2, 7, 10, 4, 4, 10, 8, 5, 5, 1, 1, 7, 8, 4, 6, 1, 3, 0, 2, 8, 0, 7, 1, 1, 1, 3, 9, 7, 3, 1, 2, 5, 0, 7, 2, 4, 9, 9, 6, 3, 4, 2, 10, 7, 9, 7, 0, 7, 6, 1, 2, 8, 0, 5, 1, 0, 0, 9, 4, 7, 1, 1, 5, 8, 10, 2, 1, 1, 10, 7, 2, 9, 4, 1, 0, 0, 6, 10, 6, 4, 8, 8, 5, 7, 4, 1, 5, 6, 8, 0, 6]);

r = array2d(1..H, 1..T, [3, 2, 4, 3, 5, 2, 2, 0, 1, 1]);
